clingo version 5.4.0
Reading from tempSRTISolver.lp ...
Solving...
Answer: 1
matched(3,2) matched(2,3) matched(1,4) matched(8,5) matched(7,6) matched(6,7) matched(5,8) matched(4,1) matched(9,10) matched(12,11) matched(11,12) matched(10,9) matched(15,14) matched(14,15) matched(18,16) matched(20,17) matched(16,18) matched(13,19) matched(17,20) matched(19,13) matched(23,22) matched(22,23) matched(26,24) matched(28,25) matched(24,26) matched(21,27) matched(25,28) matched(27,21) matched(29,30) matched(32,31) matched(31,32) matched(30,29) matched(36,34) matched(37,35) matched(34,36) matched(35,37) matched(39,38) matched(38,39) matched(33,40) matched(40,33) matched(43,42) matched(42,43) matched(46,44) matched(48,45) matched(44,46) matched(41,47) matched(45,48) matched(47,41) matched(49,50) matched(52,51) matched(51,52) matched(50,49) matched(56,54) matched(57,55) matched(54,56) matched(55,57) matched(59,58) matched(58,59) matched(53,60) matched(60,53)
Optimization: 662
Answer: 2
matched(3,2) matched(2,3) matched(1,4) matched(8,5) matched(7,6) matched(6,7) matched(5,8) matched(4,1) matched(9,10) matched(12,11) matched(11,12) matched(10,9) matched(15,14) matched(14,15) matched(18,16) matched(20,17) matched(16,18) matched(13,19) matched(17,20) matched(19,13) matched(23,22) matched(22,23) matched(26,24) matched(28,25) matched(24,26) matched(21,27) matched(25,28) matched(27,21) matched(31,30) matched(30,31) matched(29,32) matched(32,29) matched(36,34) matched(37,35) matched(34,36) matched(35,37) matched(39,38) matched(38,39) matched(33,40) matched(40,33) matched(43,42) matched(42,43) matched(46,44) matched(48,45) matched(44,46) matched(41,47) matched(45,48) matched(47,41) matched(49,50) matched(52,51) matched(51,52) matched(50,49) matched(56,54) matched(57,55) matched(54,56) matched(55,57) matched(59,58) matched(58,59) matched(53,60) matched(60,53)
Optimization: 660
Answer: 3
matched(3,2) matched(2,3) matched(1,4) matched(8,5) matched(7,6) matched(6,7) matched(5,8) matched(4,1) matched(9,10) matched(12,11) matched(11,12) matched(10,9) matched(16,14) matched(17,15) matched(14,16) matched(15,17) matched(19,18) matched(18,19) matched(13,20) matched(20,13) matched(23,22) matched(22,23) matched(26,24) matched(28,25) matched(24,26) matched(21,27) matched(25,28) matched(27,21) matched(31,30) matched(30,31) matched(29,32) matched(32,29) matched(36,34) matched(37,35) matched(34,36) matched(35,37) matched(39,38) matched(38,39) matched(33,40) matched(40,33) matched(43,42) matched(42,43) matched(46,44) matched(48,45) matched(44,46) matched(41,47) matched(45,48) matched(47,41) matched(49,50) matched(52,51) matched(51,52) matched(50,49) matched(56,54) matched(57,55) matched(54,56) matched(55,57) matched(59,58) matched(58,59) matched(53,60) matched(60,53)
Optimization: 658
Answer: 4
matched(3,2) matched(2,3) matched(1,4) matched(8,5) matched(7,6) matched(6,7) matched(5,8) matched(4,1) matched(9,10) matched(12,11) matched(11,12) matched(10,9) matched(16,14) matched(17,15) matched(14,16) matched(15,17) matched(19,18) matched(18,19) matched(13,20) matched(20,13) matched(26,22) matched(27,23) matched(21,24) matched(28,25) matched(22,26) matched(23,27) matched(25,28) matched(24,21) matched(29,30) matched(32,31) matched(31,32) matched(30,29) matched(38,34) matched(39,35) matched(33,36) matched(40,37) matched(34,38) matched(35,39) matched(37,40) matched(36,33) matched(44,42) matched(45,43) matched(42,44) matched(43,45) matched(47,46) matched(46,47) matched(41,48) matched(48,41) matched(51,50) matched(50,51) matched(49,52) matched(52,49) matched(55,54) matched(54,55) matched(58,56) matched(60,57) matched(56,58) matched(53,59) matched(57,60) matched(59,53)
Optimization: 657
Answer: 5
matched(3,2) matched(2,3) matched(1,4) matched(8,5) matched(7,6) matched(6,7) matched(5,8) matched(4,1) matched(9,10) matched(12,11) matched(11,12) matched(10,9) matched(16,14) matched(17,15) matched(14,16) matched(15,17) matched(19,18) matched(18,19) matched(13,20) matched(20,13) matched(26,22) matched(27,23) matched(21,24) matched(28,25) matched(22,26) matched(23,27) matched(25,28) matched(24,21) matched(31,30) matched(30,31) matched(29,32) matched(32,29) matched(38,34) matched(39,35) matched(33,36) matched(40,37) matched(34,38) matched(35,39) matched(37,40) matched(36,33) matched(44,42) matched(45,43) matched(42,44) matched(43,45) matched(47,46) matched(46,47) matched(41,48) matched(48,41) matched(51,50) matched(50,51) matched(49,52) matched(52,49) matched(55,54) matched(54,55) matched(58,56) matched(60,57) matched(56,58) matched(53,59) matched(57,60) matched(59,53)
Optimization: 655
Answer: 6
matched(3,2) matched(2,3) matched(5,4) matched(4,5) matched(7,6) matched(6,7) matched(1,8) matched(8,1) matched(9,10) matched(12,11) matched(11,12) matched(10,9) matched(16,14) matched(17,15) matched(14,16) matched(15,17) matched(19,18) matched(18,19) matched(13,20) matched(20,13) matched(26,22) matched(27,23) matched(21,24) matched(28,25) matched(22,26) matched(23,27) matched(25,28) matched(24,21) matched(31,30) matched(30,31) matched(29,32) matched(32,29) matched(38,34) matched(39,35) matched(33,36) matched(40,37) matched(34,38) matched(35,39) matched(37,40) matched(36,33) matched(44,42) matched(45,43) matched(42,44) matched(43,45) matched(47,46) matched(46,47) matched(41,48) matched(48,41) matched(51,50) matched(50,51) matched(49,52) matched(52,49) matched(55,54) matched(54,55) matched(58,56) matched(60,57) matched(56,58) matched(53,59) matched(57,60) matched(59,53)
Optimization: 654
Answer: 7
matched(3,2) matched(2,3) matched(5,4) matched(4,5) matched(7,6) matched(6,7) matched(1,8) matched(8,1) matched(9,10) matched(12,11) matched(11,12) matched(10,9) matched(16,14) matched(17,15) matched(14,16) matched(15,17) matched(19,18) matched(18,19) matched(13,20) matched(20,13) matched(26,22) matched(27,23) matched(21,24) matched(28,25) matched(22,26) matched(23,27) matched(25,28) matched(24,21) matched(31,30) matched(30,31) matched(29,32) matched(32,29) matched(35,34) matched(34,35) matched(38,36) matched(40,37) matched(36,38) matched(33,39) matched(37,40) matched(39,33) matched(44,42) matched(45,43) matched(42,44) matched(43,45) matched(47,46) matched(46,47) matched(41,48) matched(48,41) matched(51,50) matched(50,51) matched(49,52) matched(52,49) matched(55,54) matched(54,55) matched(58,56) matched(60,57) matched(56,58) matched(53,59) matched(57,60) matched(59,53)
Optimization: 653
Answer: 8
matched(4,2) matched(5,3) matched(2,4) matched(3,5) matched(7,6) matched(6,7) matched(1,8) matched(8,1) matched(9,10) matched(12,11) matched(11,12) matched(10,9) matched(16,14) matched(17,15) matched(14,16) matched(15,17) matched(19,18) matched(18,19) matched(13,20) matched(20,13) matched(26,22) matched(27,23) matched(21,24) matched(28,25) matched(22,26) matched(23,27) matched(25,28) matched(24,21) matched(31,30) matched(30,31) matched(29,32) matched(32,29) matched(35,34) matched(34,35) matched(38,36) matched(40,37) matched(36,38) matched(33,39) matched(37,40) matched(39,33) matched(44,42) matched(45,43) matched(42,44) matched(43,45) matched(47,46) matched(46,47) matched(41,48) matched(48,41) matched(51,50) matched(50,51) matched(49,52) matched(52,49) matched(55,54) matched(54,55) matched(58,56) matched(60,57) matched(56,58) matched(53,59) matched(57,60) matched(59,53)
Optimization: 651
Answer: 9
matched(3,2) matched(2,3) matched(1,4) matched(8,5) matched(7,6) matched(6,7) matched(5,8) matched(4,1) matched(11,10) matched(10,11) matched(9,12) matched(12,9) matched(16,14) matched(17,15) matched(14,16) matched(15,17) matched(19,18) matched(18,19) matched(13,20) matched(20,13) matched(23,22) matched(22,23) matched(21,24) matched(28,25) matched(27,26) matched(26,27) matched(25,28) matched(24,21) matched(29,30) matched(32,31) matched(31,32) matched(30,29) matched(38,34) matched(39,35) matched(37,36) matched(36,37) matched(34,38) matched(35,39) matched(33,40) matched(40,33) matched(44,42) matched(45,43) matched(42,44) matched(43,45) matched(47,46) matched(46,47) matched(41,48) matched(48,41) matched(49,50) matched(52,51) matched(51,52) matched(50,49) matched(55,54) matched(54,55) matched(53,56) matched(60,57) matched(59,58) matched(58,59) matched(57,60) matched(56,53)
Optimization: 648
Answer: 10
matched(3,2) matched(2,3) matched(5,4) matched(4,5) matched(7,6) matched(6,7) matched(1,8) matched(8,1) matched(11,10) matched(10,11) matched(9,12) matched(12,9) matched(16,14) matched(17,15) matched(14,16) matched(15,17) matched(19,18) matched(18,19) matched(13,20) matched(20,13) matched(23,22) matched(22,23) matched(21,24) matched(28,25) matched(27,26) matched(26,27) matched(25,28) matched(24,21) matched(29,30) matched(32,31) matched(31,32) matched(30,29) matched(38,34) matched(39,35) matched(37,36) matched(36,37) matched(34,38) matched(35,39) matched(33,40) matched(40,33) matched(44,42) matched(45,43) matched(42,44) matched(43,45) matched(47,46) matched(46,47) matched(41,48) matched(48,41) matched(49,50) matched(52,51) matched(51,52) matched(50,49) matched(55,54) matched(54,55) matched(53,56) matched(60,57) matched(59,58) matched(58,59) matched(57,60) matched(56,53)
Optimization: 647
Answer: 11
matched(4,2) matched(5,3) matched(2,4) matched(3,5) matched(7,6) matched(6,7) matched(1,8) matched(8,1) matched(11,10) matched(10,11) matched(9,12) matched(12,9) matched(16,14) matched(17,15) matched(14,16) matched(15,17) matched(19,18) matched(18,19) matched(13,20) matched(20,13) matched(23,22) matched(22,23) matched(21,24) matched(28,25) matched(27,26) matched(26,27) matched(25,28) matched(24,21) matched(29,30) matched(32,31) matched(31,32) matched(30,29) matched(38,34) matched(39,35) matched(37,36) matched(36,37) matched(34,38) matched(35,39) matched(33,40) matched(40,33) matched(44,42) matched(45,43) matched(42,44) matched(43,45) matched(47,46) matched(46,47) matched(41,48) matched(48,41) matched(49,50) matched(52,51) matched(51,52) matched(50,49) matched(55,54) matched(54,55) matched(53,56) matched(60,57) matched(59,58) matched(58,59) matched(57,60) matched(56,53)
Optimization: 645
Answer: 12
matched(3,2) matched(2,3) matched(5,4) matched(4,5) matched(7,6) matched(6,7) matched(1,8) matched(8,1) matched(11,10) matched(10,11) matched(9,12) matched(12,9) matched(16,14) matched(17,15) matched(14,16) matched(15,17) matched(19,18) matched(18,19) matched(13,20) matched(20,13) matched(26,22) matched(27,23) matched(21,24) matched(28,25) matched(22,26) matched(23,27) matched(25,28) matched(24,21) matched(29,30) matched(32,31) matched(31,32) matched(30,29) matched(38,34) matched(39,35) matched(37,36) matched(36,37) matched(34,38) matched(35,39) matched(33,40) matched(40,33) matched(44,42) matched(45,43) matched(42,44) matched(43,45) matched(47,46) matched(46,47) matched(41,48) matched(48,41) matched(49,50) matched(52,51) matched(51,52) matched(50,49) matched(55,54) matched(54,55) matched(53,56) matched(60,57) matched(59,58) matched(58,59) matched(57,60) matched(56,53)
Optimization: 644
Answer: 13
matched(4,2) matched(5,3) matched(2,4) matched(3,5) matched(7,6) matched(6,7) matched(1,8) matched(8,1) matched(11,10) matched(10,11) matched(9,12) matched(12,9) matched(16,14) matched(17,15) matched(14,16) matched(15,17) matched(19,18) matched(18,19) matched(13,20) matched(20,13) matched(26,22) matched(27,23) matched(21,24) matched(28,25) matched(22,26) matched(23,27) matched(25,28) matched(24,21) matched(29,30) matched(32,31) matched(31,32) matched(30,29) matched(38,34) matched(39,35) matched(37,36) matched(36,37) matched(34,38) matched(35,39) matched(33,40) matched(40,33) matched(44,42) matched(45,43) matched(42,44) matched(43,45) matched(47,46) matched(46,47) matched(41,48) matched(48,41) matched(49,50) matched(52,51) matched(51,52) matched(50,49) matched(55,54) matched(54,55) matched(53,56) matched(60,57) matched(59,58) matched(58,59) matched(57,60) matched(56,53)
Optimization: 642
Answer: 14
matched(3,2) matched(2,3) matched(1,4) matched(8,5) matched(7,6) matched(6,7) matched(5,8) matched(4,1) matched(9,10) matched(12,11) matched(11,12) matched(10,9) matched(15,14) matched(14,15) matched(18,16) matched(20,17) matched(16,18) matched(13,19) matched(17,20) matched(19,13) matched(26,22) matched(27,23) matched(21,24) matched(28,25) matched(22,26) matched(23,27) matched(25,28) matched(24,21) matched(29,30) matched(32,31) matched(31,32) matched(30,29) matched(35,34) matched(34,35) matched(37,36) matched(36,37) matched(39,38) matched(38,39) matched(33,40) matched(40,33) matched(44,42) matched(45,43) matched(42,44) matched(43,45) matched(47,46) matched(46,47) matched(41,48) matched(48,41) matched(49,50) matched(52,51) matched(51,52) matched(50,49) matched(55,54) matched(54,55) matched(53,56) matched(60,57) matched(59,58) matched(58,59) matched(57,60) matched(56,53)
Optimization: 641
Answer: 15
matched(3,2) matched(2,3) matched(1,4) matched(8,5) matched(7,6) matched(6,7) matched(5,8) matched(4,1) matched(9,10) matched(12,11) matched(11,12) matched(10,9) matched(15,14) matched(14,15) matched(18,16) matched(20,17) matched(16,18) matched(13,19) matched(17,20) matched(19,13) matched(23,22) matched(22,23) matched(21,24) matched(28,25) matched(27,26) matched(26,27) matched(25,28) matched(24,21) matched(29,30) matched(32,31) matched(31,32) matched(30,29) matched(38,34) matched(39,35) matched(37,36) matched(36,37) matched(34,38) matched(35,39) matched(33,40) matched(40,33) matched(44,42) matched(45,43) matched(42,44) matched(43,45) matched(47,46) matched(46,47) matched(41,48) matched(48,41) matched(49,50) matched(52,51) matched(51,52) matched(50,49) matched(55,54) matched(54,55) matched(53,56) matched(60,57) matched(59,58) matched(58,59) matched(57,60) matched(56,53)
Optimization: 638
Answer: 16
matched(3,2) matched(2,3) matched(1,4) matched(8,5) matched(7,6) matched(6,7) matched(5,8) matched(4,1) matched(9,10) matched(12,11) matched(11,12) matched(10,9) matched(15,14) matched(14,15) matched(18,16) matched(20,17) matched(16,18) matched(13,19) matched(17,20) matched(19,13) matched(23,22) matched(22,23) matched(21,24) matched(28,25) matched(27,26) matched(26,27) matched(25,28) matched(24,21) matched(29,30) matched(32,31) matched(31,32) matched(30,29) matched(38,34) matched(39,35) matched(37,36) matched(36,37) matched(34,38) matched(35,39) matched(33,40) matched(40,33) matched(44,42) matched(45,43) matched(42,44) matched(43,45) matched(47,46) matched(46,47) matched(41,48) matched(48,41) matched(51,50) matched(50,51) matched(49,52) matched(52,49) matched(55,54) matched(54,55) matched(53,56) matched(60,57) matched(59,58) matched(58,59) matched(57,60) matched(56,53)
Optimization: 636
Answer: 17
matched(3,2) matched(2,3) matched(1,4) matched(8,5) matched(7,6) matched(6,7) matched(5,8) matched(4,1) matched(9,10) matched(12,11) matched(11,12) matched(10,9) matched(15,14) matched(14,15) matched(18,16) matched(20,17) matched(16,18) matched(13,19) matched(17,20) matched(19,13) matched(26,22) matched(27,23) matched(21,24) matched(28,25) matched(22,26) matched(23,27) matched(25,28) matched(24,21) matched(29,30) matched(32,31) matched(31,32) matched(30,29) matched(38,34) matched(39,35) matched(37,36) matched(36,37) matched(34,38) matched(35,39) matched(33,40) matched(40,33) matched(44,42) matched(45,43) matched(42,44) matched(43,45) matched(47,46) matched(46,47) matched(41,48) matched(48,41) matched(51,50) matched(50,51) matched(49,52) matched(52,49) matched(55,54) matched(54,55) matched(53,56) matched(60,57) matched(59,58) matched(58,59) matched(57,60) matched(56,53)
Optimization: 633
Answer: 18
matched(3,2) matched(2,3) matched(1,4) matched(8,5) matched(7,6) matched(6,7) matched(5,8) matched(4,1) matched(9,10) matched(12,11) matched(11,12) matched(10,9) matched(16,14) matched(17,15) matched(14,16) matched(15,17) matched(19,18) matched(18,19) matched(13,20) matched(20,13) matched(23,22) matched(22,23) matched(21,24) matched(28,25) matched(27,26) matched(26,27) matched(25,28) matched(24,21) matched(31,30) matched(30,31) matched(29,32) matched(32,29) matched(35,34) matched(34,35) matched(37,36) matched(36,37) matched(39,38) matched(38,39) matched(33,40) matched(40,33) matched(46,42) matched(47,43) matched(45,44) matched(44,45) matched(42,46) matched(43,47) matched(41,48) matched(48,41) matched(51,50) matched(50,51) matched(49,52) matched(52,49) matched(55,54) matched(54,55) matched(53,56) matched(60,57) matched(59,58) matched(58,59) matched(57,60) matched(56,53)
Optimization: 632
Answer: 19
matched(4,2) matched(5,3) matched(2,4) matched(3,5) matched(7,6) matched(6,7) matched(1,8) matched(8,1) matched(9,10) matched(12,11) matched(11,12) matched(10,9) matched(16,14) matched(17,15) matched(14,16) matched(15,17) matched(19,18) matched(18,19) matched(13,20) matched(20,13) matched(23,22) matched(22,23) matched(21,24) matched(28,25) matched(27,26) matched(26,27) matched(25,28) matched(24,21) matched(31,30) matched(30,31) matched(29,32) matched(32,29) matched(36,34) matched(37,35) matched(34,36) matched(35,37) matched(39,38) matched(38,39) matched(33,40) matched(40,33) matched(43,42) matched(42,43) matched(46,44) matched(48,45) matched(44,46) matched(41,47) matched(45,48) matched(47,41) matched(51,50) matched(50,51) matched(49,52) matched(52,49) matched(55,54) matched(54,55) matched(53,56) matched(60,57) matched(59,58) matched(58,59) matched(57,60) matched(56,53)
Optimization: 630
Answer: 20
matched(3,2) matched(2,3) matched(1,4) matched(8,5) matched(7,6) matched(6,7) matched(5,8) matched(4,1) matched(9,10) matched(12,11) matched(11,12) matched(10,9) matched(16,14) matched(17,15) matched(14,16) matched(15,17) matched(19,18) matched(18,19) matched(13,20) matched(20,13) matched(23,22) matched(22,23) matched(21,24) matched(28,25) matched(27,26) matched(26,27) matched(25,28) matched(24,21) matched(29,30) matched(32,31) matched(31,32) matched(30,29) matched(36,34) matched(37,35) matched(34,36) matched(35,37) matched(39,38) matched(38,39) matched(33,40) matched(40,33) matched(46,42) matched(47,43) matched(45,44) matched(44,45) matched(42,46) matched(43,47) matched(41,48) matched(48,41) matched(51,50) matched(50,51) matched(49,52) matched(52,49) matched(55,54) matched(54,55) matched(53,56) matched(60,57) matched(59,58) matched(58,59) matched(57,60) matched(56,53)
Optimization: 628
Answer: 21
matched(3,2) matched(2,3) matched(1,4) matched(8,5) matched(7,6) matched(6,7) matched(5,8) matched(4,1) matched(9,10) matched(12,11) matched(11,12) matched(10,9) matched(16,14) matched(17,15) matched(14,16) matched(15,17) matched(19,18) matched(18,19) matched(13,20) matched(20,13) matched(23,22) matched(22,23) matched(21,24) matched(28,25) matched(27,26) matched(26,27) matched(25,28) matched(24,21) matched(31,30) matched(30,31) matched(29,32) matched(32,29) matched(36,34) matched(37,35) matched(34,36) matched(35,37) matched(39,38) matched(38,39) matched(33,40) matched(40,33) matched(46,42) matched(47,43) matched(45,44) matched(44,45) matched(42,46) matched(43,47) matched(41,48) matched(48,41) matched(51,50) matched(50,51) matched(49,52) matched(52,49) matched(55,54) matched(54,55) matched(53,56) matched(60,57) matched(59,58) matched(58,59) matched(57,60) matched(56,53)
Optimization: 626
Answer: 22
matched(3,2) matched(2,3) matched(5,4) matched(4,5) matched(7,6) matched(6,7) matched(1,8) matched(8,1) matched(9,10) matched(12,11) matched(11,12) matched(10,9) matched(16,14) matched(17,15) matched(14,16) matched(15,17) matched(19,18) matched(18,19) matched(13,20) matched(20,13) matched(23,22) matched(22,23) matched(21,24) matched(28,25) matched(27,26) matched(26,27) matched(25,28) matched(24,21) matched(31,30) matched(30,31) matched(29,32) matched(32,29) matched(36,34) matched(37,35) matched(34,36) matched(35,37) matched(39,38) matched(38,39) matched(33,40) matched(40,33) matched(46,42) matched(47,43) matched(45,44) matched(44,45) matched(42,46) matched(43,47) matched(41,48) matched(48,41) matched(51,50) matched(50,51) matched(49,52) matched(52,49) matched(55,54) matched(54,55) matched(53,56) matched(60,57) matched(59,58) matched(58,59) matched(57,60) matched(56,53)
Optimization: 625
Answer: 23
matched(4,2) matched(5,3) matched(2,4) matched(3,5) matched(7,6) matched(6,7) matched(1,8) matched(8,1) matched(9,10) matched(12,11) matched(11,12) matched(10,9) matched(16,14) matched(17,15) matched(14,16) matched(15,17) matched(19,18) matched(18,19) matched(13,20) matched(20,13) matched(23,22) matched(22,23) matched(21,24) matched(28,25) matched(27,26) matched(26,27) matched(25,28) matched(24,21) matched(31,30) matched(30,31) matched(29,32) matched(32,29) matched(36,34) matched(37,35) matched(34,36) matched(35,37) matched(39,38) matched(38,39) matched(33,40) matched(40,33) matched(46,42) matched(47,43) matched(45,44) matched(44,45) matched(42,46) matched(43,47) matched(41,48) matched(48,41) matched(51,50) matched(50,51) matched(49,52) matched(52,49) matched(55,54) matched(54,55) matched(53,56) matched(60,57) matched(59,58) matched(58,59) matched(57,60) matched(56,53)
Optimization: 623
Answer: 24
matched(4,2) matched(5,3) matched(2,4) matched(3,5) matched(7,6) matched(6,7) matched(1,8) matched(8,1) matched(9,10) matched(12,11) matched(11,12) matched(10,9) matched(16,14) matched(17,15) matched(14,16) matched(15,17) matched(19,18) matched(18,19) matched(13,20) matched(20,13) matched(26,22) matched(27,23) matched(21,24) matched(28,25) matched(22,26) matched(23,27) matched(25,28) matched(24,21) matched(31,30) matched(30,31) matched(29,32) matched(32,29) matched(36,34) matched(37,35) matched(34,36) matched(35,37) matched(39,38) matched(38,39) matched(33,40) matched(40,33) matched(46,42) matched(47,43) matched(45,44) matched(44,45) matched(42,46) matched(43,47) matched(41,48) matched(48,41) matched(51,50) matched(50,51) matched(49,52) matched(52,49) matched(55,54) matched(54,55) matched(53,56) matched(60,57) matched(59,58) matched(58,59) matched(57,60) matched(56,53)
Optimization: 620
OPTIMUM FOUND

Models       : 24
  Optimum    : yes
Optimization : 620
Calls        : 1
Time         : 6.308s (Solving: 5.88s 1st Model: 0.00s Unsat: 3.62s)
CPU Time     : 6.274s
